127
-1 null 0 0.0 0.0 0.0
1 1 0 9860.0 14152.0 0.0
2 1 0 9396.0 14616.0 0.0
3 1 0 11252.0 14848.0 0.0
4 1 0 11020.0 13456.0 0.0
5 1 0 9512.0 15776.0 0.0
6 1 0 10788.0 13804.0 0.0
7 1 0 10208.0 14384.0 0.0
8 1 0 11600.0 13456.0 0.0
9 1 0 11252.0 14036.0 0.0
10 1 0 10672.0 15080.0 0.0
11 1 0 11136.0 14152.0 0.0
12 1 0 9860.0 13108.0 0.0
13 1 0 10092.0 14964.0 0.0
14 1 0 9512.0 13340.0 0.0
15 1 0 10556.0 13688.0 0.0
16 1 0 9628.0 14036.0 0.0
17 1 0 10904.0 13108.0 0.0
18 1 0 11368.0 12644.0 0.0
19 1 0 11252.0 13340.0 0.0
20 1 0 10672.0 13340.0 0.0
21 1 0 11020.0 13108.0 0.0
22 1 0 11020.0 13340.0 0.0
23 1 0 11136.0 13572.0 0.0
24 1 0 11020.0 13688.0 0.0
25 1 0 8468.0 11136.0 0.0
26 1 0 8932.0 12064.0 0.0
27 1 0 9512.0 12412.0 0.0
28 1 0 7772.0 11020.0 0.0
29 1 0 8352.0 10672.0 0.0
30 1 0 9164.0 12876.0 0.0
31 1 0 9744.0 12528.0 0.0
32 1 0 8352.0 10324.0 0.0
33 1 0 8236.0 11020.0 0.0
34 1 0 8468.0 12876.0 0.0
35 1 0 8700.0 14036.0 0.0
36 1 0 8932.0 13688.0 0.0
37 1 0 9048.0 13804.0 0.0
38 1 0 8468.0 12296.0 0.0
39 1 0 8352.0 12644.0 0.0
40 1 0 8236.0 13572.0 0.0
41 1 0 9164.0 13340.0 0.0
42 1 0 8004.0 12760.0 0.0
43 1 0 8584.0 13108.0 0.0
44 1 0 7772.0 14732.0 0.0
45 1 0 7540.0 15080.0 0.0
46 1 0 7424.0 17516.0 0.0
47 1 0 8352.0 17052.0 0.0
48 1 0 7540.0 16820.0 0.0
49 1 0 7888.0 17168.0 0.0
50 1 0 9744.0 15196.0 0.0
51 1 0 9164.0 14964.0 0.0
52 1 0 9744.0 16240.0 0.0
53 1 0 7888.0 16936.0 0.0
54 1 0 8236.0 15428.0 0.0
55 1 0 9512.0 17400.0 0.0
56 1 0 9164.0 16008.0 0.0
57 1 0 8700.0 15312.0 0.0
58 1 0 11716.0 16008.0 0.0
59 1 0 12992.0 14964.0 0.0
60 1 0 12412.0 14964.0 0.0
61 1 0 12296.0 15312.0 0.0
62 1 0 12528.0 15196.0 0.0
63 1 0 15312.0 6612.0 0.0
64 1 0 11716.0 16124.0 0.0
65 1 0 11600.0 19720.0 0.0
66 1 0 10324.0 17516.0 0.0
67 1 0 12412.0 13340.0 0.0
68 1 0 12876.0 12180.0 0.0
69 1 0 13688.0 10904.0 0.0
70 1 0 13688.0 11716.0 0.0
71 1 0 13688.0 12528.0 0.0
72 1 0 11484.0 13224.0 0.0
73 1 0 12296.0 12760.0 0.0
74 1 0 12064.0 12528.0 0.0
75 1 0 12644.0 10556.0 0.0
76 1 0 11832.0 11252.0 0.0
77 1 0 11368.0 12296.0 0.0
78 1 0 11136.0 11020.0 0.0
79 1 0 10556.0 11948.0 0.0
80 1 0 10324.0 11716.0 0.0
81 1 0 11484.0 9512.0 0.0
82 1 0 11484.0 7540.0 0.0
83 1 0 11020.0 7424.0 0.0
84 1 0 11484.0 9744.0 0.0
85 1 0 16936.0 12180.0 0.0
86 1 0 17052.0 12064.0 0.0
87 1 0 16936.0 11832.0 0.0
88 1 0 17052.0 11600.0 0.0
89 1 0 13804.0 18792.0 0.0
90 1 0 12064.0 14964.0 0.0
91 1 0 12180.0 15544.0 0.0
92 1 0 14152.0 18908.0 0.0
93 1 0 5104.0 14616.0 0.0
94 1 0 6496.0 17168.0 0.0
95 1 0 5684.0 13224.0 0.0
96 1 0 15660.0 10788.0 0.0
97 1 0 5336.0 10324.0 0.0
98 1 0 812.0 6264.0 0.0
99 1 0 14384.0 20184.0 0.0
100 1 0 11252.0 15776.0 0.0
101 1 0 9744.0 3132.0 0.0
102 1 0 10904.0 3480.0 0.0
103 1 0 7308.0 14848.0 0.0
104 1 0 16472.0 16472.0 0.0
105 1 0 10440.0 14036.0 0.0
106 1 0 10672.0 13804.0 0.0
107 1 0 1160.0 18560.0 0.0
108 1 0 10788.0 13572.0 0.0
109 1 0 15660.0 11368.0 0.0
110 1 0 15544.0 12760.0 0.0
111 1 0 5336.0 18908.0 0.0
112 1 0 6264.0 19140.0 0.0
113 1 0 11832.0 17516.0 0.0
114 1 0 10672.0 14152.0 0.0
115 1 0 10208.0 15196.0 0.0
116 1 0 12180.0 14848.0 0.0
117 1 0 11020.0 10208.0 0.0
118 1 0 7656.0 17052.0 0.0
119 1 0 16240.0 8352.0 0.0
120 1 0 10440.0 14732.0 0.0
121 1 0 9164.0 15544.0 0.0
122 1 0 8004.0 11020.0 0.0
123 1 0 5684.0 11948.0 0.0
124 1 0 9512.0 16472.0 0.0
125 1 0 13688.0 17516.0 0.0
126 1 0 11484.0 8468.0 0.0
127 1 0 3248.0 14152.0 0.0
